p cnf 28 353
c ind 2 8 16 17 18 20 21 22 23  0
c ind 24 25  0
1 -2 8 0
1 -3 9 0
1 -4 10 0
1 -5 11 0
1 -6 12 0
1 -7 13 0
2 -1 -8 0
2 -3 14 0
2 -4 15 0
2 -5 16 0
2 -6 17 0
2 -7 18 0
3 -1 -9 0
3 -2 -14 0
3 -4 19 0
3 -5 20 0
3 -6 21 0
3 -7 22 0
4 -1 -10 0
4 -2 -15 0
4 -3 -19 0
4 -5 23 0
4 -6 24 0
4 -7 25 0
5 -1 -11 0
5 -2 -16 0
5 -3 -20 0
5 -4 -23 0
5 -6 26 0
5 -7 27 0
6 -1 -12 0
6 -2 -17 0
6 -3 -21 0
6 -4 -24 0
6 -5 -26 0
6 -7 28 0
7 -1 -13 0
7 -2 -18 0
7 -3 -22 0
7 -4 -25 0
7 -5 -27 0
7 -6 -28 0
-1 -8 2 0
-1 -9 3 0
-1 -10 4 0
-1 -11 5 0
-1 -12 6 0
-1 -13 7 0
8 1 -2 0
8 -9 14 0
8 -10 15 0
8 -11 16 0
8 -12 17 0
8 -13 18 0
9 1 -3 0
9 -8 -14 0
9 -10 19 0
9 -11 20 0
9 -12 21 0
9 -13 22 0
10 1 -4 0
10 -8 -15 0
10 -9 -19 0
10 -11 23 0
10 -12 24 0
10 -13 25 0
11 1 -5 0
11 -8 -16 0
11 -9 -20 0
11 -10 -23 0
11 -12 26 0
11 -13 27 0
12 1 -6 0
12 -8 -17 0
12 -9 -21 0
12 -10 -24 0
12 -11 -26 0
12 -13 28 0
13 1 -7 0
13 -8 -18 0
13 -9 -22 0
13 -10 -25 0
13 -11 -27 0
13 -12 -28 0
-2 8 1 0
-2 -14 3 0
-2 -15 4 0
-2 -16 5 0
-2 -17 6 0
-2 -18 7 0
-8 2 -1 0
-8 -14 9 0
-8 -15 10 0
-8 -16 11 0
-8 -17 12 0
-8 -18 13 0
14 2 -3 0
14 8 -9 0
14 -15 19 0
14 -16 20 0
14 -17 21 0
14 -18 22 0
15 2 -4 0
15 8 -10 0
15 -14 -19 0
15 -16 23 0
15 -17 24 0
15 -18 25 0
16 2 -5 0
16 8 -11 0
16 -14 -20 0
16 -15 -23 0
16 -17 26 0
16 -18 27 0
17 2 -6 0
17 8 -12 0
17 -14 -21 0
17 -15 -24 0
17 -16 -26 0
17 -18 28 0
18 2 -7 0
18 8 -13 0
18 -14 -22 0
18 -15 -25 0
18 -16 -27 0
18 -17 -28 0
-3 9 1 0
-3 14 2 0
-3 -19 4 0
-3 -20 5 0
-3 -21 6 0
-3 -22 7 0
-9 3 -1 0
-9 14 8 0
-9 -19 10 0
-9 -20 11 0
-9 -21 12 0
-9 -22 13 0
-14 3 -2 0
-14 9 -8 0
-14 -19 15 0
-14 -20 16 0
-14 -21 17 0
-14 -22 18 0
19 3 -4 0
19 9 -10 0
19 14 -15 0
19 -20 23 0
19 -21 24 0
19 -22 25 0
20 3 -5 0
20 9 -11 0
20 14 -16 0
20 -19 -23 0
20 -21 26 0
20 -22 27 0
21 3 -6 0
21 9 -12 0
21 14 -17 0
21 -19 -24 0
21 -20 -26 0
21 -22 28 0
22 3 -7 0
22 9 -13 0
22 14 -18 0
22 -19 -25 0
22 -20 -27 0
22 -21 -28 0
-4 10 1 0
-4 15 2 0
-4 19 3 0
-4 -23 5 0
-4 -24 6 0
-4 -25 7 0
-10 4 -1 0
-10 15 8 0
-10 19 9 0
-10 -23 11 0
-10 -24 12 0
-10 -25 13 0
-15 4 -2 0
-15 10 -8 0
-15 19 14 0
-15 -23 16 0
-15 -24 17 0
-15 -25 18 0
-19 4 -3 0
-19 10 -9 0
-19 15 -14 0
-19 -23 20 0
-19 -24 21 0
-19 -25 22 0
23 4 -5 0
23 10 -11 0
23 15 -16 0
23 19 -20 0
23 -24 26 0
23 -25 27 0
24 4 -6 0
24 10 -12 0
24 15 -17 0
24 19 -21 0
24 -23 -26 0
24 -25 28 0
25 4 -7 0
25 10 -13 0
25 15 -18 0
25 19 -22 0
25 -23 -27 0
25 -24 -28 0
-5 11 1 0
-5 16 2 0
-5 20 3 0
-5 23 4 0
-5 -26 6 0
-5 -27 7 0
-11 5 -1 0
-11 16 8 0
-11 20 9 0
-11 23 10 0
-11 -26 12 0
-11 -27 13 0
-16 5 -2 0
-16 11 -8 0
-16 20 14 0
-16 23 15 0
-16 -26 17 0
-16 -27 18 0
-20 5 -3 0
-20 11 -9 0
-20 16 -14 0
-20 23 19 0
-20 -26 21 0
-20 -27 22 0
-23 5 -4 0
-23 11 -10 0
-23 16 -15 0
-23 20 -19 0
-23 -26 24 0
-23 -27 25 0
26 5 -6 0
26 11 -12 0
26 16 -17 0
26 20 -21 0
26 23 -24 0
26 -27 28 0
27 5 -7 0
27 11 -13 0
27 16 -18 0
27 20 -22 0
27 23 -25 0
27 -26 -28 0
-6 12 1 0
-6 17 2 0
-6 21 3 0
-6 24 4 0
-6 26 5 0
-6 -28 7 0
-12 6 -1 0
-12 17 8 0
-12 21 9 0
-12 24 10 0
-12 26 11 0
-12 -28 13 0
-17 6 -2 0
-17 12 -8 0
-17 21 14 0
-17 24 15 0
-17 26 16 0
-17 -28 18 0
-21 6 -3 0
-21 12 -9 0
-21 17 -14 0
-21 24 19 0
-21 26 20 0
-21 -28 22 0
-24 6 -4 0
-24 12 -10 0
-24 17 -15 0
-24 21 -19 0
-24 26 23 0
-24 -28 25 0
-26 6 -5 0
-26 12 -11 0
-26 17 -16 0
-26 21 -20 0
-26 24 -23 0
-26 -28 27 0
28 6 -7 0
28 12 -13 0
28 17 -18 0
28 21 -22 0
28 24 -25 0
28 26 -27 0
-7 13 1 0
-7 18 2 0
-7 22 3 0
-7 25 4 0
-7 27 5 0
-7 28 6 0
-13 7 -1 0
-13 18 8 0
-13 22 9 0
-13 25 10 0
-13 27 11 0
-13 28 12 0
-18 7 -2 0
-18 13 -8 0
-18 22 14 0
-18 25 15 0
-18 27 16 0
-18 28 17 0
-22 7 -3 0
-22 13 -9 0
-22 18 -14 0
-22 25 19 0
-22 27 20 0
-22 28 21 0
-25 7 -4 0
-25 13 -10 0
-25 18 -15 0
-25 22 -19 0
-25 27 23 0
-25 28 24 0
-27 7 -5 0
-27 13 -11 0
-27 18 -16 0
-27 22 -20 0
-27 25 -23 0
-27 28 26 0
-28 7 -6 0
-28 13 -12 0
-28 18 -17 0
-28 22 -21 0
-28 25 -24 0
-28 27 -26 0
-1 0
-3 0
-9 0
-14 0
-4 0
-10 0
-15 0
-19 0
-5 0
-11 0
-6 0
-12 0
-26 0
-7 0
-13 0
-27 0
-28 0
